100 1119,6295 694,24305 51,7559
200 6458,7671 4870,155025 2287,5649
300 27531,4892 13779,664724999999 54,7357
400 4139,3744 2874,9045 806,6616
500 38340,1178 17873,909050000002 5142,5046
600 1298,8387 643,498 38,096
700 8155,9905 4629,51885 2476,7004
800 44011,6848 15573,611225 23,8189
900 5416,9115 2840,2719 946,39
1000 30939,5654 16468,275675 6150,9161
